NAME: archivos8
TYPE: TSP
COMMENT: 8-Staedte in archivos8 (Zaw Win)
DIMENSION: 8
EDGE_WEIGHT_TYPE: GEO
EDGE_WEIGHT_FORMAT: FUNCTION
DISPLAY_DATA_TYPE: COORD_DISPLAY
NODE_COORD_SECTION
1 1.00 43.00
2 1.00 312.00
3 1.00 60.00
4 1.00 65.00
5 1.00 133.00
6 1.00 77.00
7 1.00 38.00
8 1.00 79.00
EOF